(declare-sort sk 0)
(declare-sort fun1 0)
(declare-sort fun12 0)
(declare-sort fun13 0)
(declare-sort fun14 0)
(declare-sort fun15 0)
(declare-sort fun16 0)
(declare-sort sk2 0)
(declare-datatype list3 ((nil3) (cons3 (head3 sk) (tail3 list3))))
(declare-datatype Nat ((zero) (succ (p Nat))))
(declare-datatype list2 ((nil2) (cons2 (head2 Nat) (tail2 list2))))
(declare-datatype list ((nil) (cons (head list2) (tail list))))
(declare-fun leq (Nat Nat) Bool)
(declare-fun lmerge (list2 list2) list2)
(declare-fun pairwise (list) list)
(declare-fun mergingbu2 (list) list2)
(declare-fun risers (list2) list)
(declare-fun msortbu2 (list2) list2)
(declare-fun elem (sk list3) Bool)
(declare-fun deleteBy (fun12 sk list3) list3)
(declare-fun isPermutation (list3 list3) Bool)
(declare-fun lam (sk) fun14)
(declare-const lam2 fun12)
(declare-fun apply1 (fun1 sk) sk)
(declare-fun apply12 (fun12 sk) fun14)
(declare-fun apply13 (fun13 sk) sk2)
(declare-fun apply14 (fun14 sk) Bool)
(declare-fun apply15 (fun15 sk2) sk)
(declare-fun apply16 (fun16 sk2) sk2)
(assert (isPermutation nil3 nil3))
(assert (= (pairwise nil) nil))
(assert (= (mergingbu2 nil) nil2))
(assert (= (risers nil2) nil))
(assert (forall ((y Nat)) (leq zero y)))
(assert (forall ((z Nat)) (not (leq (succ z) zero))))
(assert
  (forall ((z Nat) (x2 Nat))
    (= (leq (succ z) (succ x2)) (leq z x2))))
(assert (forall ((y list2)) (= (lmerge nil2 y) y)))
(assert
  (forall ((z Nat) (x2 list2))
    (= (lmerge (cons2 z x2) nil2) (cons2 z x2))))
(assert
  (forall ((z Nat) (x2 list2) (x3 Nat) (x4 list2))
    (=> (leq z x3)
      (= (lmerge (cons2 z x2) (cons2 x3 x4))
        (cons2 z (lmerge x2 (cons2 x3 x4)))))))
(assert
  (forall ((z Nat) (x2 list2) (x3 Nat) (x4 list2))
    (=> (not (leq z x3))
      (= (lmerge (cons2 z x2) (cons2 x3 x4))
        (cons2 x3 (lmerge (cons2 z x2) x4))))))
(assert
  (forall ((xs list2)) (= (pairwise (cons xs nil)) (cons xs nil))))
(assert
  (forall ((xs list2) (ys list2) (xss list))
    (= (pairwise (cons xs (cons ys xss)))
      (cons (lmerge xs ys) (pairwise xss)))))
(assert (forall ((xs list2)) (= (mergingbu2 (cons xs nil)) xs)))
(assert
  (forall ((xs list2) (z list2) (x2 list))
    (= (mergingbu2 (cons xs (cons z x2)))
      (mergingbu2 (pairwise (cons xs (cons z x2)))))))
(assert
  (forall ((y Nat))
    (= (risers (cons2 y nil2)) (cons (cons2 y nil2) nil))))
(assert
  (forall ((y Nat) (y2 Nat) (xs list2))
    (=> (leq y y2)
      (=> (= (risers (cons2 y2 xs)) nil)
        (= (risers (cons2 y (cons2 y2 xs))) nil)))))
(assert
  (forall ((y Nat) (y2 Nat) (xs list2))
    (=> (not (leq y y2))
      (= (risers (cons2 y (cons2 y2 xs)))
        (cons (cons2 y nil2) (risers (cons2 y2 xs)))))))
(assert
  (forall ((y Nat) (y2 Nat) (xs list2) (ys list2) (yss list))
    (=> (leq y y2)
      (=> (= (risers (cons2 y2 xs)) (cons ys yss))
        (= (risers (cons2 y (cons2 y2 xs))) (cons (cons2 y ys) yss))))))
(assert
  (forall ((x list2)) (= (msortbu2 x) (mergingbu2 (risers x)))))
(assert (forall ((x sk)) (not (elem x nil3))))
(assert
  (forall ((x sk) (z sk) (xs list3))
    (= (elem x (cons3 z xs)) (or (= z x) (elem x xs)))))
(assert (forall ((x fun12) (y sk)) (= (deleteBy x y nil3) nil3)))
(assert
  (forall ((x fun12) (y sk) (y2 sk) (ys list3))
    (=> (apply14 (apply12 x y) y2)
      (= (deleteBy x y (cons3 y2 ys)) ys))))
(assert
  (forall ((x fun12) (y sk) (y2 sk) (ys list3))
    (=> (not (apply14 (apply12 x y) y2))
      (= (deleteBy x y (cons3 y2 ys)) (cons3 y2 (deleteBy x y ys))))))
(assert
  (forall ((y list3) (x3 sk) (xs list3))
    (= (isPermutation (cons3 x3 xs) y)
      (and (elem x3 y) (isPermutation xs (deleteBy lam2 x3 y))))))
(assert
  (forall ((z sk) (x2 list3))
    (not (isPermutation nil3 (cons3 z x2)))))
(assert (forall ((x4 sk)) (= (apply12 lam2 x4) (lam x4))))
(assert
  (forall ((x4 sk) (x5 sk)) (= (apply14 (lam x4) x5) (= x4 x5))))
